\Problem name: compact

Minimize
OBJROW: C
Subject To
ord(0,1):  - x(0,0) + x(0,1) >= 6
ord(0,2):  - x(0,1) + x(0,3) >= 5
ord(0,3):  x(0,2) - x(0,3) >= 9
ord(1,1):  - x(1,1) + x(1,2) >= 1
ord(1,2):  - x(1,2) + x(1,3) >= 8
ord(1,3):  x(1,0) - x(1,3) >= 7
ord(2,1):  - x(2,0) + x(2,3) >= 2
ord(2,2):  x(2,2) - x(2,3) >= 8
ord(2,3):  x(2,1) - x(2,2) >= 2
ord(3,1):  - x(3,0) + x(3,2) >= 4
ord(3,2):  x(3,1) - x(3,2) >= 7
ord(3,3):  - x(3,1) + x(3,3) >= 2
triangle2(0,1,0):  y(0,1,0) + y(1,0,0) = 1
triangle2(0,1,1):  y(0,1,1) + y(1,0,1) = 1
triangle2(0,1,2):  y(0,1,2) + y(1,0,2) = 1
triangle2(0,1,3):  y(0,1,3) + y(1,0,3) = 1
triangle2(0,2,0):  y(0,2,0) + y(2,0,0) = 1
triangle2(0,2,1):  y(0,2,1) + y(2,0,1) = 1
triangle2(0,2,2):  y(0,2,2) + y(2,0,2) = 1
triangle2(0,2,3):  y(0,2,3) + y(2,0,3) = 1
triangle2(0,3,0):  y(0,3,0) + y(3,0,0) = 1
triangle2(0,3,1):  y(0,3,1) + y(3,0,1) = 1
triangle2(0,3,2):  y(0,3,2) + y(3,0,2) = 1
triangle2(0,3,3):  y(0,3,3) + y(3,0,3) = 1
triangle2(1,2,0):  y(1,2,0) + y(2,1,0) = 1
triangle2(1,2,1):  y(1,2,1) + y(2,1,1) = 1
triangle2(1,2,2):  y(1,2,2) + y(2,1,2) = 1
triangle2(1,2,3):  y(1,2,3) + y(2,1,3) = 1
triangle2(1,3,0):  y(1,3,0) + y(3,1,0) = 1
triangle2(1,3,1):  y(1,3,1) + y(3,1,1) = 1
triangle2(1,3,2):  y(1,3,2) + y(3,1,2) = 1
triangle2(1,3,3):  y(1,3,3) + y(3,1,3) = 1
triangle2(2,3,0):  y(2,3,0) + y(3,2,0) = 1
triangle2(2,3,1):  y(2,3,1) + y(3,2,1) = 1
triangle2(2,3,2):  y(2,3,2) + y(3,2,2) = 1
triangle2(2,3,3):  y(2,3,3) + y(3,2,3) = 1
MCLinV(0,1,0):  x(0,0) - v(0,1,0) - x(1,0) = 5
MCLinV(1,0,0):  - x(0,0) - v(1,0,0) + x(1,0) = 6
MCLin1(0,1,0):  u(0,1,0) >= -0
MCLin2(0,1,0):  -86 y(1,0,0) - u(0,1,0) <= -0
MCLin3(0,1,0):  35 y(1,0,0) + v(0,1,0) - u(0,1,0) <= 35
MCLin4(0,1,0):  35 y(1,0,0) - u(0,1,0) >= -0
MCLin5(0,1,0):  -86 y(1,0,0) + v(0,1,0) - u(0,1,0) >= -86
MCLin6(1,0,0):  u(1,0,0) >= -0
MCLin7(1,0,0):  -46 y(0,1,0) - u(1,0,0) <= -0
MCLin8(1,0,0):  75 y(0,1,0) + v(1,0,0) - u(1,0,0) <= 75
MCLin9(1,0,0):  75 y(0,1,0) - u(1,0,0) >= -0
MCLin10(1,0,0):  -46 y(0,1,0) + v(1,0,0) - u(1,0,0) >= -46
MCLinV(0,1,1):  x(0,1) - v(0,1,1) - x(1,1) = 1
MCLinV(1,0,1):  - x(0,1) - v(1,0,1) + x(1,1) = 5
MCLin1(0,1,1):  u(0,1,1) >= -0
MCLin2(0,1,1):  -60 y(1,0,1) - u(0,1,1) <= -0
MCLin3(0,1,1):  61 y(1,0,1) + v(0,1,1) - u(0,1,1) <= 61
MCLin4(0,1,1):  61 y(1,0,1) - u(0,1,1) >= -0
MCLin5(0,1,1):  -60 y(1,0,1) + v(0,1,1) - u(0,1,1) >= -60
MCLin6(1,0,1):  u(1,0,1) >= -0
MCLin7(1,0,1):  -67 y(0,1,1) - u(1,0,1) <= -0
MCLin8(1,0,1):  54 y(0,1,1) + v(1,0,1) - u(1,0,1) <= 54
MCLin9(1,0,1):  54 y(0,1,1) - u(1,0,1) >= -0
MCLin10(1,0,1):  -67 y(0,1,1) + v(1,0,1) - u(1,0,1) >= -67
MCLinV(0,1,2):  x(0,2) - v(0,1,2) - x(1,2) = 8
MCLinV(1,0,2):  - x(0,2) - v(1,0,2) + x(1,2) = 10
MCLin1(0,1,2):  u(0,1,2) >= -0
MCLin2(0,1,2):  -54 y(1,0,2) - u(0,1,2) <= -0
MCLin3(0,1,2):  67 y(1,0,2) + v(0,1,2) - u(0,1,2) <= 67
MCLin4(0,1,2):  67 y(1,0,2) - u(0,1,2) >= -0
MCLin5(0,1,2):  -54 y(1,0,2) + v(0,1,2) - u(0,1,2) >= -54
MCLin6(1,0,2):  u(1,0,2) >= -0
MCLin7(1,0,2):  -85 y(0,1,2) - u(1,0,2) <= -0
MCLin8(1,0,2):  36 y(0,1,2) + v(1,0,2) - u(1,0,2) <= 36
MCLin9(1,0,2):  36 y(0,1,2) - u(1,0,2) >= -0
MCLin10(1,0,2):  -85 y(0,1,2) + v(1,0,2) - u(1,0,2) >= -85
MCLinV(0,1,3):  x(0,3) - v(0,1,3) - x(1,3) = 7
MCLinV(1,0,3):  - x(0,3) - v(1,0,3) + x(1,3) = 9
MCLin1(0,1,3):  u(0,1,3) >= -0
MCLin2(0,1,3):  -70 y(1,0,3) - u(0,1,3) <= -0
MCLin3(0,1,3):  51 y(1,0,3) + v(0,1,3) - u(0,1,3) <= 51
MCLin4(0,1,3):  51 y(1,0,3) - u(0,1,3) >= -0
MCLin5(0,1,3):  -70 y(1,0,3) + v(0,1,3) - u(0,1,3) >= -70
MCLin6(1,0,3):  u(1,0,3) >= -0
MCLin7(1,0,3):  -67 y(0,1,3) - u(1,0,3) <= -0
MCLin8(1,0,3):  54 y(0,1,3) + v(1,0,3) - u(1,0,3) <= 54
MCLin9(1,0,3):  54 y(0,1,3) - u(1,0,3) >= -0
MCLin10(1,0,3):  -67 y(0,1,3) + v(1,0,3) - u(1,0,3) >= -67
MCLinV(0,2,0):  x(0,0) - v(0,2,0) - x(2,0) = 2
MCLinV(2,0,0):  - x(0,0) - v(2,0,0) + x(2,0) = 6
MCLin1(0,2,0):  u(0,2,0) >= -0
MCLin2(0,2,0):  -74 y(2,0,0) - u(0,2,0) <= -0
MCLin3(0,2,0):  54 y(2,0,0) + v(0,2,0) - u(0,2,0) <= 54
MCLin4(0,2,0):  54 y(2,0,0) - u(0,2,0) >= -0
MCLin5(0,2,0):  -74 y(2,0,0) + v(0,2,0) - u(0,2,0) >= -74
MCLin6(2,0,0):  u(2,0,0) >= -0
MCLin7(2,0,0):  -62 y(0,2,0) - u(2,0,0) <= -0
MCLin8(2,0,0):  66 y(0,2,0) + v(2,0,0) - u(2,0,0) <= 66
MCLin9(2,0,0):  66 y(0,2,0) - u(2,0,0) >= -0
MCLin10(2,0,0):  -62 y(0,2,0) + v(2,0,0) - u(2,0,0) >= -62
MCLinV(0,2,1):  x(0,1) - v(0,2,1) - x(2,1) = 2
MCLinV(2,0,1):  - x(0,1) - v(2,0,1) + x(2,1) = 5
MCLin1(0,2,1):  u(0,2,1) >= -0
MCLin2(0,2,1):  -80 y(2,0,1) - u(0,2,1) <= -0
MCLin3(0,2,1):  48 y(2,0,1) + v(0,2,1) - u(0,2,1) <= 48
MCLin4(0,2,1):  48 y(2,0,1) - u(0,2,1) >= -0
MCLin5(0,2,1):  -80 y(2,0,1) + v(0,2,1) - u(0,2,1) >= -80
MCLin6(2,0,1):  u(2,0,1) >= -0
MCLin7(2,0,1):  -55 y(0,2,1) - u(2,0,1) <= -0
MCLin8(2,0,1):  73 y(0,2,1) + v(2,0,1) - u(2,0,1) <= 73
MCLin9(2,0,1):  73 y(0,2,1) - u(2,0,1) >= -0
MCLin10(2,0,1):  -55 y(0,2,1) + v(2,0,1) - u(2,0,1) >= -55
MCLinV(0,2,2):  x(0,2) - v(0,2,2) - x(2,2) = 2
MCLinV(2,0,2):  - x(0,2) - v(2,0,2) + x(2,2) = 10
MCLin1(0,2,2):  u(0,2,2) >= -0
MCLin2(0,2,2):  -64 y(2,0,2) - u(0,2,2) <= -0
MCLin3(0,2,2):  64 y(2,0,2) + v(0,2,2) - u(0,2,2) <= 64
MCLin4(0,2,2):  64 y(2,0,2) - u(0,2,2) >= -0
MCLin5(0,2,2):  -64 y(2,0,2) + v(0,2,2) - u(0,2,2) >= -64
MCLin6(2,0,2):  u(2,0,2) >= -0
MCLin7(2,0,2):  -76 y(0,2,2) - u(2,0,2) <= -0
MCLin8(2,0,2):  52 y(0,2,2) + v(2,0,2) - u(2,0,2) <= 52
MCLin9(2,0,2):  52 y(0,2,2) - u(2,0,2) >= -0
MCLin10(2,0,2):  -76 y(0,2,2) + v(2,0,2) - u(2,0,2) >= -76
MCLinV(0,2,3):  x(0,3) - v(0,2,3) - x(2,3) = 8
MCLinV(2,0,3):  - x(0,3) - v(2,0,3) + x(2,3) = 9
MCLin1(0,2,3):  u(0,2,3) >= -0
MCLin2(0,2,3):  -71 y(2,0,3) - u(0,2,3) <= -0
MCLin3(0,2,3):  57 y(2,0,3) + v(0,2,3) - u(0,2,3) <= 57
MCLin4(0,2,3):  57 y(2,0,3) - u(0,2,3) >= -0
MCLin5(0,2,3):  -71 y(2,0,3) + v(0,2,3) - u(0,2,3) >= -71
MCLin6(2,0,3):  u(2,0,3) >= -0
MCLin7(2,0,3):  -74 y(0,2,3) - u(2,0,3) <= -0
MCLin8(2,0,3):  54 y(0,2,3) + v(2,0,3) - u(2,0,3) <= 54
MCLin9(2,0,3):  54 y(0,2,3) - u(2,0,3) >= -0
MCLin10(2,0,3):  -74 y(0,2,3) + v(2,0,3) - u(2,0,3) >= -74
MCLinV(0,3,0):  x(0,0) - v(0,3,0) - x(3,0) = 4
MCLinV(3,0,0):  - x(0,0) - v(3,0,0) + x(3,0) = 6
MCLin1(0,3,0):  u(0,3,0) >= -0
MCLin2(0,3,0):  -69 y(3,0,0) - u(0,3,0) <= -0
MCLin3(0,3,0):  52 y(3,0,0) + v(0,3,0) - u(0,3,0) <= 52
MCLin4(0,3,0):  52 y(3,0,0) - u(0,3,0) >= -0
MCLin5(0,3,0):  -69 y(3,0,0) + v(0,3,0) - u(0,3,0) >= -69
MCLin6(3,0,0):  u(3,0,0) >= -0
MCLin7(3,0,0):  -62 y(0,3,0) - u(3,0,0) <= -0
MCLin8(3,0,0):  59 y(0,3,0) + v(3,0,0) - u(3,0,0) <= 59
MCLin9(3,0,0):  59 y(0,3,0) - u(3,0,0) >= -0
MCLin10(3,0,0):  -62 y(0,3,0) + v(3,0,0) - u(3,0,0) >= -62
MCLinV(0,3,1):  x(0,1) - v(0,3,1) - x(3,1) = 2
MCLinV(3,0,1):  - x(0,1) - v(3,0,1) + x(3,1) = 5
MCLin1(0,3,1):  u(0,3,1) >= -0
MCLin2(0,3,1):  -72 y(3,0,1) - u(0,3,1) <= -0
MCLin3(0,3,1):  49 y(3,0,1) + v(0,3,1) - u(0,3,1) <= 49
MCLin4(0,3,1):  49 y(3,0,1) - u(0,3,1) >= -0
MCLin5(0,3,1):  -72 y(3,0,1) + v(0,3,1) - u(0,3,1) >= -72
MCLin6(3,0,1):  u(3,0,1) >= -0
MCLin7(3,0,1):  -56 y(0,3,1) - u(3,0,1) <= -0
MCLin8(3,0,1):  65 y(0,3,1) + v(3,0,1) - u(3,0,1) <= 65
MCLin9(3,0,1):  65 y(0,3,1) - u(3,0,1) >= -0
MCLin10(3,0,1):  -56 y(0,3,1) + v(3,0,1) - u(3,0,1) >= -56
MCLinV(0,3,2):  x(0,2) - v(0,3,2) - x(3,2) = 7
MCLinV(3,0,2):  - x(0,2) - v(3,0,2) + x(3,2) = 10
MCLin1(0,3,2):  u(0,3,2) >= -0
MCLin2(0,3,2):  -56 y(3,0,2) - u(0,3,2) <= -0
MCLin3(0,3,2):  65 y(3,0,2) + v(0,3,2) - u(0,3,2) <= 65
MCLin4(0,3,2):  65 y(3,0,2) - u(0,3,2) >= -0
MCLin5(0,3,2):  -56 y(3,0,2) + v(0,3,2) - u(0,3,2) >= -56
MCLin6(3,0,2):  u(3,0,2) >= -0
MCLin7(3,0,2):  -82 y(0,3,2) - u(3,0,2) <= -0
MCLin8(3,0,2):  39 y(0,3,2) + v(3,0,2) - u(3,0,2) <= 39
MCLin9(3,0,2):  39 y(0,3,2) - u(3,0,2) >= -0
MCLin10(3,0,2):  -82 y(0,3,2) + v(3,0,2) - u(3,0,2) >= -82
MCLinV(0,3,3):  x(0,3) - v(0,3,3) - x(3,3) = 8
MCLinV(3,0,3):  - x(0,3) - v(3,0,3) + x(3,3) = 9
MCLin1(0,3,3):  u(0,3,3) >= -0
MCLin2(0,3,3):  -75 y(3,0,3) - u(0,3,3) <= -0
MCLin3(0,3,3):  46 y(3,0,3) + v(0,3,3) - u(0,3,3) <= 46
MCLin4(0,3,3):  46 y(3,0,3) - u(0,3,3) >= -0
MCLin5(0,3,3):  -75 y(3,0,3) + v(0,3,3) - u(0,3,3) >= -75
MCLin6(3,0,3):  u(3,0,3) >= -0
MCLin7(3,0,3):  -63 y(0,3,3) - u(3,0,3) <= -0
MCLin8(3,0,3):  58 y(0,3,3) + v(3,0,3) - u(3,0,3) <= 58
MCLin9(3,0,3):  58 y(0,3,3) - u(3,0,3) >= -0
MCLin10(3,0,3):  -63 y(0,3,3) + v(3,0,3) - u(3,0,3) >= -63
MCLinV(1,2,0):  x(1,0) - v(1,2,0) - x(2,0) = 2
MCLinV(2,1,0):  - x(1,0) - v(2,1,0) + x(2,0) = 5
MCLin1(1,2,0):  u(1,2,0) >= -0
MCLin2(1,2,0):  -58 y(2,1,0) - u(1,2,0) <= -0
MCLin3(1,2,0):  79 y(2,1,0) + v(1,2,0) - u(1,2,0) <= 79
MCLin4(1,2,0):  79 y(2,1,0) - u(1,2,0) >= -0
MCLin5(1,2,0):  -58 y(2,1,0) + v(1,2,0) - u(1,2,0) >= -58
MCLin6(2,1,0):  u(2,1,0) >= -0
MCLin7(2,1,0):  -86 y(1,2,0) - u(2,1,0) <= -0
MCLin8(2,1,0):  51 y(1,2,0) + v(2,1,0) - u(2,1,0) <= 51
MCLin9(2,1,0):  51 y(1,2,0) - u(2,1,0) >= -0
MCLin10(2,1,0):  -86 y(1,2,0) + v(2,1,0) - u(2,1,0) >= -86
MCLinV(1,2,1):  x(1,1) - v(1,2,1) - x(2,1) = 2
MCLinV(2,1,1):  - x(1,1) - v(2,1,1) + x(2,1) = 1
MCLin1(1,2,1):  u(1,2,1) >= -0
MCLin2(1,2,1):  -86 y(2,1,1) - u(1,2,1) <= -0
MCLin3(1,2,1):  51 y(2,1,1) + v(1,2,1) - u(1,2,1) <= 51
MCLin4(1,2,1):  51 y(2,1,1) - u(1,2,1) >= -0
MCLin5(1,2,1):  -86 y(2,1,1) + v(1,2,1) - u(1,2,1) >= -86
MCLin6(2,1,1):  u(2,1,1) >= -0
MCLin7(2,1,1):  -54 y(1,2,1) - u(2,1,1) <= -0
MCLin8(2,1,1):  83 y(1,2,1) + v(2,1,1) - u(2,1,1) <= 83
MCLin9(2,1,1):  83 y(1,2,1) - u(2,1,1) >= -0
MCLin10(2,1,1):  -54 y(1,2,1) + v(2,1,1) - u(2,1,1) >= -54
MCLinV(1,2,2):  x(1,2) - v(1,2,2) - x(2,2) = 2
MCLinV(2,1,2):  - x(1,2) - v(2,1,2) + x(2,2) = 8
MCLin1(1,2,2):  u(1,2,2) >= -0
MCLin2(1,2,2):  -83 y(2,1,2) - u(1,2,2) <= -0
MCLin3(1,2,2):  54 y(2,1,2) + v(1,2,2) - u(1,2,2) <= 54
MCLin4(1,2,2):  54 y(2,1,2) - u(1,2,2) >= -0
MCLin5(1,2,2):  -83 y(2,1,2) + v(1,2,2) - u(1,2,2) >= -83
MCLin6(2,1,2):  u(2,1,2) >= -0
MCLin7(2,1,2):  -64 y(1,2,2) - u(2,1,2) <= -0
MCLin8(2,1,2):  73 y(1,2,2) + v(2,1,2) - u(2,1,2) <= 73
MCLin9(2,1,2):  73 y(1,2,2) - u(2,1,2) >= -0
MCLin10(2,1,2):  -64 y(1,2,2) + v(2,1,2) - u(2,1,2) >= -64
MCLinV(1,2,3):  x(1,3) - v(1,2,3) - x(2,3) = 8
MCLinV(2,1,3):  - x(1,3) - v(2,1,3) + x(2,3) = 7
MCLin1(1,2,3):  u(1,2,3) >= -0
MCLin2(1,2,3):  -73 y(2,1,3) - u(1,2,3) <= -0
MCLin3(1,2,3):  64 y(2,1,3) + v(1,2,3) - u(1,2,3) <= 64
MCLin4(1,2,3):  64 y(2,1,3) - u(1,2,3) >= -0
MCLin5(1,2,3):  -73 y(2,1,3) + v(1,2,3) - u(1,2,3) >= -73
MCLin6(2,1,3):  u(2,1,3) >= -0
MCLin7(2,1,3):  -79 y(1,2,3) - u(2,1,3) <= -0
MCLin8(2,1,3):  58 y(1,2,3) + v(2,1,3) - u(2,1,3) <= 58
MCLin9(2,1,3):  58 y(1,2,3) - u(2,1,3) >= -0
MCLin10(2,1,3):  -79 y(1,2,3) + v(2,1,3) - u(2,1,3) >= -79
MCLinV(1,3,0):  x(1,0) - v(1,3,0) - x(3,0) = 4
MCLinV(3,1,0):  - x(1,0) - v(3,1,0) + x(3,0) = 5
MCLin1(1,3,0):  u(1,3,0) >= -0
MCLin2(1,3,0):  -53 y(3,1,0) - u(1,3,0) <= -0
MCLin3(1,3,0):  77 y(3,1,0) + v(1,3,0) - u(1,3,0) <= 77
MCLin4(1,3,0):  77 y(3,1,0) - u(1,3,0) >= -0
MCLin5(1,3,0):  -53 y(3,1,0) + v(1,3,0) - u(1,3,0) >= -53
MCLin6(3,1,0):  u(3,1,0) >= -0
MCLin7(3,1,0):  -86 y(1,3,0) - u(3,1,0) <= -0
MCLin8(3,1,0):  44 y(1,3,0) + v(3,1,0) - u(3,1,0) <= 44
MCLin9(3,1,0):  44 y(1,3,0) - u(3,1,0) >= -0
MCLin10(3,1,0):  -86 y(1,3,0) + v(3,1,0) - u(3,1,0) >= -86
MCLinV(1,3,1):  x(1,1) - v(1,3,1) - x(3,1) = 2
MCLinV(3,1,1):  - x(1,1) - v(3,1,1) + x(3,1) = 1
MCLin1(1,3,1):  u(1,3,1) >= -0
MCLin2(1,3,1):  -78 y(3,1,1) - u(1,3,1) <= -0
MCLin3(1,3,1):  52 y(3,1,1) + v(1,3,1) - u(1,3,1) <= 52
MCLin4(1,3,1):  52 y(3,1,1) - u(1,3,1) >= -0
MCLin5(1,3,1):  -78 y(3,1,1) + v(1,3,1) - u(1,3,1) >= -78
MCLin6(3,1,1):  u(3,1,1) >= -0
MCLin7(3,1,1):  -55 y(1,3,1) - u(3,1,1) <= -0
MCLin8(3,1,1):  75 y(1,3,1) + v(3,1,1) - u(3,1,1) <= 75
MCLin9(3,1,1):  75 y(1,3,1) - u(3,1,1) >= -0
MCLin10(3,1,1):  -55 y(1,3,1) + v(3,1,1) - u(3,1,1) >= -55
MCLinV(1,3,2):  x(1,2) - v(1,3,2) - x(3,2) = 7
MCLinV(3,1,2):  - x(1,2) - v(3,1,2) + x(3,2) = 8
MCLin1(1,3,2):  u(1,3,2) >= -0
MCLin2(1,3,2):  -75 y(3,1,2) - u(1,3,2) <= -0
MCLin3(1,3,2):  55 y(3,1,2) + v(1,3,2) - u(1,3,2) <= 55
MCLin4(1,3,2):  55 y(3,1,2) - u(1,3,2) >= -0
MCLin5(1,3,2):  -75 y(3,1,2) + v(1,3,2) - u(1,3,2) >= -75
MCLin6(3,1,2):  u(3,1,2) >= -0
MCLin7(3,1,2):  -70 y(1,3,2) - u(3,1,2) <= -0
MCLin8(3,1,2):  60 y(1,3,2) + v(3,1,2) - u(3,1,2) <= 60
MCLin9(3,1,2):  60 y(1,3,2) - u(3,1,2) >= -0
MCLin10(3,1,2):  -70 y(1,3,2) + v(3,1,2) - u(3,1,2) >= -70
MCLinV(1,3,3):  x(1,3) - v(1,3,3) - x(3,3) = 8
MCLinV(3,1,3):  - x(1,3) - v(3,1,3) + x(3,3) = 7
MCLin1(1,3,3):  u(1,3,3) >= -0
MCLin2(1,3,3):  -77 y(3,1,3) - u(1,3,3) <= -0
MCLin3(1,3,3):  53 y(3,1,3) + v(1,3,3) - u(1,3,3) <= 53
MCLin4(1,3,3):  53 y(3,1,3) - u(1,3,3) >= -0
MCLin5(1,3,3):  -77 y(3,1,3) + v(1,3,3) - u(1,3,3) >= -77
MCLin6(3,1,3):  u(3,1,3) >= -0
MCLin7(3,1,3):  -68 y(1,3,3) - u(3,1,3) <= -0
MCLin8(3,1,3):  62 y(1,3,3) + v(3,1,3) - u(3,1,3) <= 62
MCLin9(3,1,3):  62 y(1,3,3) - u(3,1,3) >= -0
MCLin10(3,1,3):  -68 y(1,3,3) + v(3,1,3) - u(3,1,3) >= -68
MCLinV(2,3,0):  x(2,0) - v(2,3,0) - x(3,0) = 4
MCLinV(3,2,0):  - x(2,0) - v(3,2,0) + x(3,0) = 2
MCLin1(2,3,0):  u(2,3,0) >= -0
MCLin2(2,3,0):  -69 y(3,2,0) - u(2,3,0) <= -0
MCLin3(2,3,0):  68 y(3,2,0) + v(2,3,0) - u(2,3,0) <= 68
MCLin4(2,3,0):  68 y(3,2,0) - u(2,3,0) >= -0
MCLin5(2,3,0):  -69 y(3,2,0) + v(2,3,0) - u(2,3,0) >= -69
MCLin6(3,2,0):  u(3,2,0) >= -0
MCLin7(3,2,0):  -74 y(2,3,0) - u(3,2,0) <= -0
MCLin8(3,2,0):  63 y(2,3,0) + v(3,2,0) - u(3,2,0) <= 63
MCLin9(3,2,0):  63 y(2,3,0) - u(3,2,0) >= -0
MCLin10(3,2,0):  -74 y(2,3,0) + v(3,2,0) - u(3,2,0) >= -74
MCLinV(2,3,1):  x(2,1) - v(2,3,1) - x(3,1) = 2
MCLinV(3,2,1):  - x(2,1) - v(3,2,1) + x(3,1) = 2
MCLin1(2,3,1):  u(2,3,1) >= -0
MCLin2(2,3,1):  -66 y(3,2,1) - u(2,3,1) <= -0
MCLin3(2,3,1):  71 y(3,2,1) + v(2,3,1) - u(2,3,1) <= 71
MCLin4(2,3,1):  71 y(3,2,1) - u(2,3,1) >= -0
MCLin5(2,3,1):  -66 y(3,2,1) + v(2,3,1) - u(2,3,1) >= -66
MCLin6(3,2,1):  u(3,2,1) >= -0
MCLin7(3,2,1):  -75 y(2,3,1) - u(3,2,1) <= -0
MCLin8(3,2,1):  62 y(2,3,1) + v(3,2,1) - u(3,2,1) <= 62
MCLin9(3,2,1):  62 y(2,3,1) - u(3,2,1) >= -0
MCLin10(3,2,1):  -75 y(2,3,1) + v(3,2,1) - u(3,2,1) >= -75
MCLinV(2,3,2):  x(2,2) - v(2,3,2) - x(3,2) = 7
MCLinV(3,2,2):  - x(2,2) - v(3,2,2) + x(3,2) = 2
MCLin1(2,3,2):  u(2,3,2) >= -0
MCLin2(2,3,2):  -66 y(3,2,2) - u(2,3,2) <= -0
MCLin3(2,3,2):  71 y(3,2,2) + v(2,3,2) - u(2,3,2) <= 71
MCLin4(2,3,2):  71 y(3,2,2) - u(2,3,2) >= -0
MCLin5(2,3,2):  -66 y(3,2,2) + v(2,3,2) - u(2,3,2) >= -66
MCLin6(3,2,2):  u(3,2,2) >= -0
MCLin7(3,2,2):  -80 y(2,3,2) - u(3,2,2) <= -0
MCLin8(3,2,2):  57 y(2,3,2) + v(3,2,2) - u(3,2,2) <= 57
MCLin9(3,2,2):  57 y(2,3,2) - u(3,2,2) >= -0
MCLin10(3,2,2):  -80 y(2,3,2) + v(3,2,2) - u(3,2,2) >= -80
MCLinV(2,3,3):  x(2,3) - v(2,3,3) - x(3,3) = 8
MCLinV(3,2,3):  - x(2,3) - v(3,2,3) + x(3,3) = 8
MCLin1(2,3,3):  u(2,3,3) >= -0
MCLin2(2,3,3):  -84 y(3,2,3) - u(2,3,3) <= -0
MCLin3(2,3,3):  53 y(3,2,3) + v(2,3,3) - u(2,3,3) <= 53
MCLin4(2,3,3):  53 y(3,2,3) - u(2,3,3) >= -0
MCLin5(2,3,3):  -84 y(3,2,3) + v(2,3,3) - u(2,3,3) >= -84
MCLin6(3,2,3):  u(3,2,3) >= -0
MCLin7(3,2,3):  -69 y(2,3,3) - u(3,2,3) <= -0
MCLin8(3,2,3):  68 y(2,3,3) + v(3,2,3) - u(3,2,3) <= 68
MCLin9(3,2,3):  68 y(2,3,3) - u(3,2,3) >= -0
MCLin10(3,2,3):  -69 y(2,3,3) + v(3,2,3) - u(3,2,3) >= -69
makespan(0):  C - x(0,2) >= 10
makespan(1):  C - x(1,0) >= 5
makespan(2):  C - x(2,1) >= 2
makespan(3):  C - x(3,3) >= 8
cut_clique_0(0123,0):  0.25000 x(0,0) + 0.16667 x(3,0) >= 1
cut_clique_0(023,0):  0.25000 x(0,0) + 0.16667 x(3,0) >= 1
cut_clique_0(012,0):  0.50000 x(0,0) + 0.16667 x(2,0) >= 1
cut_clique_0(013,0):  0.25000 x(0,0) + 0.16667 x(3,0) >= 1
cut_clique_0(123,0):  0.25000 x(2,0) + 0.50000 x(3,0) >= 1
cut_clique_0(0123,2):  0.04107 x(1,2) + 0.01027 x(2,2) + 0.08830 x(3,2) >= 1
cut_clique_0(123,2):  0.04107 x(1,2) + 0.01027 x(2,2) + 0.08830 x(3,2) >= 1
cut_clique_0(013,2):  0.05263 x(1,2) + 0.10526 x(3,2) >= 1
cut_clique_0(0123,3):  0.02147 x(0,3) + 0.01352 x(1,3) + 0.00174 x(2,3) + 0.01909 x(3,3) >= 1
cut_clique_0(013,3):  0.02342 x(0,3) + 0.01164 x(1,3) + 0.02082 x(3,3) >= 1
cut_clique_0(023,3):  0.02527 x(0,3) + 0.03610 x(3,3) >= 1
cut_clique_0(012,3):  0.04322 x(0,3) + 0.02593 x(1,3) + 0.00301 x(2,3) >= 1
cut_clique_0(123,3):  0.01752 x(1,3) + 0.00299 x(2,3) + 0.04817 x(3,3) >= 1
cut_clique_1(0123,3):  0.03318 x(0,3) + 0.01249 x(1,3) + 0.01427 x(3,3) >= 1
cut_clique_1(013,3):  0.03318 x(0,3) + 0.01249 x(1,3) + 0.01427 x(3,3) >= 1
cut_clique_2(0123,0):  0.13636 x(0,0) + 0.04545 x(2,0) + 0.09091 x(3,0) >= 1
cut_clique_2(023,0):  0.13636 x(0,0) + 0.04545 x(2,0) + 0.09091 x(3,0) >= 1
cut_clique_2(0123,3):  0.02596 x(0,3) + 0.01398 x(1,3) + 0.00180 x(2,3) + 0.01597 x(3,3) >= 1
cut_clique_0:  0.09308 x(0,0) + 0.06205 x(3,0) + 0.01275 x(0,3) + 0.00485 x(1,3) + 0.00789 x(2,3) + 0.00554 x(3,3) >= 1
cut_clique_1:  0.06377 x(0,0) + 0.03771 x(3,0) + 0.02009 x(0,3) + 0.00664 x(1,3) + 0.00615 x(2,3) + 0.00758 x(3,3) >= 1
cut_clique_2:  0.03820 x(0,0) + 0.02546 x(3,0) + 0.02461 x(0,3) + 0.00868 x(1,3) + 0.00386 x(2,3) + 0.00992 x(3,3) >= 1
Bounds
 0 <= C <= 86
 0 <= x(0,0) <= 56
 0 <= y(0,1,0) <= 1
 0 <= y(1,0,0) <= 1
 -86 <= v(0,1,0) <= 35
 -46 <= v(1,0,0) <= 75
 -860 <= u(0,1,0)
 -860 <= u(1,0,0)
 0 <= y(0,2,0) <= 1
 0 <= y(2,0,0) <= 1
 -74 <= v(0,2,0) <= 54
 -62 <= v(2,0,0) <= 66
 -860 <= u(0,2,0)
 -860 <= u(2,0,0)
 0 <= y(0,3,0) <= 1
 0 <= y(3,0,0) <= 1
 -69 <= v(0,3,0) <= 52
 -62 <= v(3,0,0) <= 59
 -860 <= u(0,3,0)
 -860 <= u(3,0,0)
 16 <= x(1,0) <= 81
 0 <= y(1,2,0) <= 1
 0 <= y(2,1,0) <= 1
 -58 <= v(1,2,0) <= 79
 -86 <= v(2,1,0) <= 51
 -860 <= u(1,2,0)
 -860 <= u(2,1,0)
 0 <= y(1,3,0) <= 1
 0 <= y(3,1,0) <= 1
 -53 <= v(1,3,0) <= 77
 -86 <= v(3,1,0) <= 44
 -860 <= u(1,3,0)
 -860 <= u(3,1,0)
 0 <= x(2,0) <= 72
 0 <= y(2,3,0) <= 1
 0 <= y(3,2,0) <= 1
 -69 <= v(2,3,0) <= 68
 -74 <= v(3,2,0) <= 63
 -860 <= u(2,3,0)
 -860 <= u(3,2,0)
 0 <= x(3,0) <= 65
 6 <= x(0,1) <= 62
 0 <= y(0,1,1) <= 1
 0 <= y(1,0,1) <= 1
 -60 <= v(0,1,1) <= 61
 -67 <= v(1,0,1) <= 54
 -860 <= u(0,1,1)
 -860 <= u(1,0,1)
 0 <= y(0,2,1) <= 1
 0 <= y(2,0,1) <= 1
 -80 <= v(0,2,1) <= 48
 -55 <= v(2,0,1) <= 73
 -860 <= u(0,2,1)
 -860 <= u(2,0,1)
 0 <= y(0,3,1) <= 1
 0 <= y(3,0,1) <= 1
 -72 <= v(0,3,1) <= 49
 -56 <= v(3,0,1) <= 65
 -860 <= u(0,3,1)
 -860 <= u(3,0,1)
 0 <= x(1,1) <= 65
 0 <= y(1,2,1) <= 1
 0 <= y(2,1,1) <= 1
 -86 <= v(1,2,1) <= 51
 -54 <= v(2,1,1) <= 83
 -860 <= u(1,2,1)
 -860 <= u(2,1,1)
 0 <= y(1,3,1) <= 1
 0 <= y(3,1,1) <= 1
 -78 <= v(1,3,1) <= 52
 -55 <= v(3,1,1) <= 75
 -860 <= u(1,3,1)
 -860 <= u(3,1,1)
 12 <= x(2,1) <= 84
 0 <= y(2,3,1) <= 1
 0 <= y(3,2,1) <= 1
 -66 <= v(2,3,1) <= 71
 -75 <= v(3,2,1) <= 62
 -860 <= u(2,3,1)
 -860 <= u(3,2,1)
 11 <= x(3,1) <= 76
 20 <= x(0,2) <= 76
 0 <= y(0,1,2) <= 1
 0 <= y(1,0,2) <= 1
 -54 <= v(0,1,2) <= 67
 -85 <= v(1,0,2) <= 36
 -860 <= u(0,1,2)
 -860 <= u(1,0,2)
 0 <= y(0,2,2) <= 1
 0 <= y(2,0,2) <= 1
 -64 <= v(0,2,2) <= 64
 -76 <= v(2,0,2) <= 52
 -860 <= u(0,2,2)
 -860 <= u(2,0,2)
 0 <= y(0,3,2) <= 1
 0 <= y(3,0,2) <= 1
 -56 <= v(0,3,2) <= 65
 -82 <= v(3,0,2) <= 39
 -860 <= u(0,3,2)
 -860 <= u(3,0,2)
 1 <= x(1,2) <= 66
 0 <= y(1,2,2) <= 1
 0 <= y(2,1,2) <= 1
 -83 <= v(1,2,2) <= 54
 -64 <= v(2,1,2) <= 73
 -860 <= u(1,2,2)
 -860 <= u(2,1,2)
 0 <= y(1,3,2) <= 1
 0 <= y(3,1,2) <= 1
 -75 <= v(1,3,2) <= 55
 -70 <= v(3,1,2) <= 60
 -860 <= u(1,3,2)
 -860 <= u(3,1,2)
 10 <= x(2,2) <= 82
 0 <= y(2,3,2) <= 1
 0 <= y(3,2,2) <= 1
 -66 <= v(2,3,2) <= 71
 -80 <= v(3,2,2) <= 57
 -860 <= u(2,3,2)
 -860 <= u(3,2,2)
 4 <= x(3,2) <= 69
 11 <= x(0,3) <= 67
 0 <= y(0,1,3) <= 1
 0 <= y(1,0,3) <= 1
 -70 <= v(0,1,3) <= 51
 -67 <= v(1,0,3) <= 54
 -860 <= u(0,1,3)
 -860 <= u(1,0,3)
 0 <= y(0,2,3) <= 1
 0 <= y(2,0,3) <= 1
 -71 <= v(0,2,3) <= 57
 -74 <= v(2,0,3) <= 54
 -860 <= u(0,2,3)
 -860 <= u(2,0,3)
 0 <= y(0,3,3) <= 1
 0 <= y(3,0,3) <= 1
 -75 <= v(0,3,3) <= 46
 -63 <= v(3,0,3) <= 58
 -860 <= u(0,3,3)
 -860 <= u(3,0,3)
 9 <= x(1,3) <= 74
 0 <= y(1,2,3) <= 1
 0 <= y(2,1,3) <= 1
 -73 <= v(1,2,3) <= 64
 -79 <= v(2,1,3) <= 58
 -860 <= u(1,2,3)
 -860 <= u(2,1,3)
 0 <= y(1,3,3) <= 1
 0 <= y(3,1,3) <= 1
 -77 <= v(1,3,3) <= 53
 -68 <= v(3,1,3) <= 62
 -860 <= u(1,3,3)
 -860 <= u(3,1,3)
 2 <= x(2,3) <= 74
 0 <= y(2,3,3) <= 1
 0 <= y(3,2,3) <= 1
 -84 <= v(2,3,3) <= 53
 -69 <= v(3,2,3) <= 68
 -860 <= u(2,3,3)
 -860 <= u(3,2,3)
 13 <= x(3,3) <= 78
Integers
C x(0,0) y(0,1,0) y(1,0,0) v(0,1,0) v(1,0,0) u(0,1,0) u(1,0,0) y(0,2,0) y(2,0,0) 
v(0,2,0) v(2,0,0) u(0,2,0) u(2,0,0) y(0,3,0) y(3,0,0) v(0,3,0) v(3,0,0) u(0,3,0) u(3,0,0) 
x(1,0) y(1,2,0) y(2,1,0) v(1,2,0) v(2,1,0) u(1,2,0) u(2,1,0) y(1,3,0) y(3,1,0) v(1,3,0) 
v(3,1,0) u(1,3,0) u(3,1,0) x(2,0) y(2,3,0) y(3,2,0) v(2,3,0) v(3,2,0) u(2,3,0) u(3,2,0) 
x(3,0) x(0,1) y(0,1,1) y(1,0,1) v(0,1,1) v(1,0,1) u(0,1,1) u(1,0,1) y(0,2,1) y(2,0,1) 
v(0,2,1) v(2,0,1) u(0,2,1) u(2,0,1) y(0,3,1) y(3,0,1) v(0,3,1) v(3,0,1) u(0,3,1) u(3,0,1) 
x(1,1) y(1,2,1) y(2,1,1) v(1,2,1) v(2,1,1) u(1,2,1) u(2,1,1) y(1,3,1) y(3,1,1) v(1,3,1) 
v(3,1,1) u(1,3,1) u(3,1,1) x(2,1) y(2,3,1) y(3,2,1) v(2,3,1) v(3,2,1) u(2,3,1) u(3,2,1) 
x(3,1) x(0,2) y(0,1,2) y(1,0,2) v(0,1,2) v(1,0,2) u(0,1,2) u(1,0,2) y(0,2,2) y(2,0,2) 
v(0,2,2) v(2,0,2) u(0,2,2) u(2,0,2) y(0,3,2) y(3,0,2) v(0,3,2) v(3,0,2) u(0,3,2) u(3,0,2) 
x(1,2) y(1,2,2) y(2,1,2) v(1,2,2) v(2,1,2) u(1,2,2) u(2,1,2) y(1,3,2) y(3,1,2) v(1,3,2) 
v(3,1,2) u(1,3,2) u(3,1,2) x(2,2) y(2,3,2) y(3,2,2) v(2,3,2) v(3,2,2) u(2,3,2) u(3,2,2) 
x(3,2) x(0,3) y(0,1,3) y(1,0,3) v(0,1,3) v(1,0,3) u(0,1,3) u(1,0,3) y(0,2,3) y(2,0,3) 
v(0,2,3) v(2,0,3) u(0,2,3) u(2,0,3) y(0,3,3) y(3,0,3) v(0,3,3) v(3,0,3) u(0,3,3) u(3,0,3) 
x(1,3) y(1,2,3) y(2,1,3) v(1,2,3) v(2,1,3) u(1,2,3) u(2,1,3) y(1,3,3) y(3,1,3) v(1,3,3) 
v(3,1,3) u(1,3,3) u(3,1,3) x(2,3) y(2,3,3) y(3,2,3) v(2,3,3) v(3,2,3) u(2,3,3) u(3,2,3) 
x(3,3) 
End
